NAME          DCAP_2_3_3_500_SS10
ROWS
 N  OBJ
 L  CON1
 L  CON2
 L  CON3
 L  CON4
 L  CON5
 L  CON6
 L  CON7
 L  CON8
 L  CON9
 L  CON10
 L  CON11
 L  CON12
 E  CON13
 E  CON14
 E  CON15
 E  CON16
 E  CON17
 E  CON18
 E  CON19
 E  CON20
 E  CON21
COLUMNS
    x[1,1]    OBJ       6.180167      CON1      1.000000    
    x[1,1]    CON7      -1.000000     CON8      -1.000000   
    x[1,1]    CON9      -1.000000   
    x[1,2]    OBJ       6.563535      CON2      1.000000    
    x[1,2]    CON8      -1.000000     CON9      -1.000000   
    x[1,3]    OBJ       7.443064      CON3      1.000000    
    x[1,3]    CON9      -1.000000   
    x[2,1]    OBJ       6.732585      CON4      1.000000    
    x[2,1]    CON10     -1.000000     CON11     -1.000000   
    x[2,1]    CON12     -1.000000   
    x[2,2]    OBJ       5.039546      CON5      1.000000    
    x[2,2]    CON11     -1.000000     CON12     -1.000000   
    x[2,3]    OBJ       6.054841      CON6      1.000000    
    x[2,3]    CON12     -1.000000   
    MARKER    'MARKER'                'INTORG'
    u[1,1]    OBJ       48.076654     CON1      -1.000000   
    u[1,2]    OBJ       20.066487     CON2      -1.000000   
    u[1,3]    OBJ       32.230043     CON3      -1.000000   
    u[2,1]    OBJ       49.996186     CON4      -1.000000   
    u[2,2]    OBJ       49.466655     CON5      -1.000000   
    u[2,3]    OBJ       27.484319     CON6      -1.000000   
    y[1,1,1]  OBJ       8.274336      CON7      1.095374    
    y[1,1,1]  CON13     1.000000    
    y[1,1,2]  OBJ       5.713710      CON8      0.724475    
    y[1,1,2]  CON14     1.000000    
    y[1,1,3]  OBJ       6.833222      CON9      0.683919    
    y[1,1,3]  CON15     1.000000    
    y[1,2,1]  OBJ       5.023220      CON7      0.641736    
    y[1,2,1]  CON16     1.000000    
    y[1,2,2]  OBJ       8.070911      CON8      1.235396    
    y[1,2,2]  CON17     1.000000    
    y[1,2,3]  OBJ       5.574722      CON9      0.878984    
    y[1,2,3]  CON18     1.000000    
    y[1,3,1]  OBJ       7.004842      CON7      0.750813    
    y[1,3,1]  CON19     1.000000    
    y[1,3,2]  OBJ       5.757607      CON8      1.204207    
    y[1,3,2]  CON20     1.000000    
    y[1,3,3]  OBJ       9.095237      CON9      0.999199    
    y[1,3,3]  CON21     1.000000    
    y[2,1,1]  OBJ       8.223660      CON10     1.095374    
    y[2,1,1]  CON13     1.000000    
    y[2,1,2]  OBJ       6.617079      CON11     0.724475    
    y[2,1,2]  CON14     1.000000    
    y[2,1,3]  OBJ       6.715108      CON12     0.683919    
    y[2,1,3]  CON15     1.000000    
    y[2,2,1]  OBJ       7.257596      CON10     0.641736    
    y[2,2,1]  CON16     1.000000    
    y[2,2,2]  OBJ       6.228152      CON11     1.235396    
    y[2,2,2]  CON17     1.000000    
    y[2,2,3]  OBJ       5.694589      CON12     0.878984    
    y[2,2,3]  CON18     1.000000    
    y[2,3,1]  OBJ       9.041293      CON10     0.750813    
    y[2,3,1]  CON19     1.000000    
    y[2,3,2]  OBJ       5.137592      CON11     1.204207    
    y[2,3,2]  CON20     1.000000    
    y[2,3,3]  OBJ       5.818952      CON12     0.999199    
    y[2,3,3]  CON21     1.000000    
    z[1,1]    OBJ       597.158142    CON13     1.000000    
    z[1,2]    OBJ       898.540627    CON14     1.000000    
    z[1,3]    OBJ       626.197105    CON15     1.000000    
    z[2,1]    OBJ       537.414706    CON16     1.000000    
    z[2,2]    OBJ       937.905295    CON17     1.000000    
    z[2,3]    OBJ       637.946891    CON18     1.000000    
    z[3,1]    OBJ       515.671280    CON19     1.000000    
    z[3,2]    OBJ       785.214820    CON20     1.000000    
    z[3,3]    OBJ       716.494773    CON21     1.000000    
    MARKER    'MARKER'                 'INTEND'
RHS
    RHS       CON1      -0.000000     CON2      -0.000000   
    RHS       CON3      -0.000000     CON4      -0.000000   
    RHS       CON5      -0.000000     CON6      -0.000000   
    RHS       CON7      -0.000000     CON8      -0.000000   
    RHS       CON9      -0.000000     CON10     -0.000000   
    RHS       CON11     -0.000000     CON12     -0.000000   
    RHS       CON13     1.000000      CON14     1.000000    
    RHS       CON15     1.000000      CON16     1.000000    
    RHS       CON17     1.000000      CON18     1.000000    
    RHS       CON19     1.000000      CON20     1.000000    
    RHS       CON21     1.000000    
BOUNDS
 BV BOUND     u[1,1]  
 BV BOUND     u[1,2]  
 BV BOUND     u[1,3]  
 BV BOUND     u[2,1]  
 BV BOUND     u[2,2]  
 BV BOUND     u[2,3]  
 BV BOUND     y[1,1,1]
 BV BOUND     y[1,1,2]
 BV BOUND     y[1,1,3]
 BV BOUND     y[1,2,1]
 BV BOUND     y[1,2,2]
 BV BOUND     y[1,2,3]
 BV BOUND     y[1,3,1]
 BV BOUND     y[1,3,2]
 BV BOUND     y[1,3,3]
 BV BOUND     y[2,1,1]
 BV BOUND     y[2,1,2]
 BV BOUND     y[2,1,3]
 BV BOUND     y[2,2,1]
 BV BOUND     y[2,2,2]
 BV BOUND     y[2,2,3]
 BV BOUND     y[2,3,1]
 BV BOUND     y[2,3,2]
 BV BOUND     y[2,3,3]
 BV BOUND     z[1,1]  
 BV BOUND     z[1,2]  
 BV BOUND     z[1,3]  
 BV BOUND     z[2,1]  
 BV BOUND     z[2,2]  
 BV BOUND     z[2,3]  
 BV BOUND     z[3,1]  
 BV BOUND     z[3,2]  
 BV BOUND     z[3,3]  
ENDATA
